(set-info :source |printed by MathSAT|)
(declare-fun __VERIFIER_nondet_uint!2@ () (_ BitVec 32))
(declare-fun |main::n@3| () (_ BitVec 32))
(declare-fun __VERIFIER_nondet_uint!3@ () (_ BitVec 32))
(declare-fun |main::x@3| () (_ BitVec 32))
(declare-fun |main::y@2| () (_ BitVec 32))
(declare-fun |main::x@4| () (_ BitVec 32))
(declare-fun |main::y@3| () (_ BitVec 32))
(assert (let ((.def_23 (bvult |main::y@2| |main::x@3|)))(let ((.def_18 (bvneg |main::x@3|)))(let ((.def_19 (bvadd |main::n@3| .def_18)))(let ((.def_21 (= .def_19 |main::y@2|)))(let ((.def_15 (= __VERIFIER_nondet_uint!3@ |main::x@3|)))(let ((.def_12 (= __VERIFIER_nondet_uint!2@ |main::n@3|)))(let ((.def_16 (and .def_12 .def_15)))(let ((.def_22 (and .def_16 .def_21)))(let ((.def_82 (and .def_22 .def_23)))(let ((.def_33 (bvadd (_ bv4294967295 32) |main::x@3|)))(let ((.def_35 (= .def_33 |main::x@4|)))(let ((.def_83 (and .def_35 .def_82)))(let ((.def_38 (bvadd (_ bv1 32) |main::y@2|)))(let ((.def_40 (= .def_38 |main::y@3|)))(let ((.def_84 (and .def_40 .def_83)))(let ((.def_42 (bvult |main::x@4| |main::y@3|)))(let ((.def_85 (and .def_42 .def_84))).def_85))))))))))))))))))